Comps = {frontend0, frontend1, backend0, backend1, backend2, database0, database1};
mustComps = {frontend0, frontend1};
Flavs = {tiny, medium, large};
Nodes = {n1, n2, n3, n4};
CRes = {CPU, RAM, storage, bwIn, bwOut};
NRes = {ssl, fwall, encr, avail, latency};
Flav = [{medium, large}, {medium, large}, {tiny, medium, large}, {tiny, medium, large}, {tiny, medium, large}, {large}, {large}];
Uses = [{backend1}, {backend2}, {backend1}, {backend2}, {}, {}, {}, {database1}, {database1}, {database0}, {database1}, {database1}, {database0}, {}, {}];
MAX_BOUND = 1000000;

worstBounds = [0, 0, 0, 0, 0, 0, 0, 0, 0, MAX_BOUND];
bestBounds = [MAX_BOUND - i | i in worstBounds];

comReq = array2d(CompFlavs, Res, [
  2, 415, 255, 671, 718, 0, 1, 1, 97, MAX_BOUND,
  2, 248, 344, 578, 971, 1, 0, 1, 95, MAX_BOUND,
  2, 397, 499, 609, 658, 1, 0, 1, 95, MAX_BOUND,
  8, 252, 230, 900, 720, 0, 0, 1, 96, MAX_BOUND,
  2, 324, 246, 793, 925, 1, 0, 1, 96, MAX_BOUND,
  2, 201, 484, 777, 828, 1, 0, 1, 95, MAX_BOUND,
  2, 467, 313, 433, 875, 0, 1, 1, 97, MAX_BOUND,
  4, 299, 493, 568, 931, 1, 1, 0, 97, MAX_BOUND,
  2, 420, 206, 615, 661, 1, 1, 0, 95, MAX_BOUND,
  2, 287, 421, 770, 937, 1, 1, 1, 96, MAX_BOUND,
  4, 424, 236, 754, 388, 1, 0, 0, 95, MAX_BOUND,
  2, 467, 260, 662, 618, 1, 0, 0, 95, MAX_BOUND,
  4, 413, 285, 406, 677, 1, 1, 0, 95, MAX_BOUND,
  2, 234, 385, 949, 263, 1, 0, 1, 95, MAX_BOUND,
  4, 404, 426, 261, 485, 0, 0, 1, 95, MAX_BOUND,
]);

nodeCap = array2d(Nodes0, Res, [bestBounds[r] | r in Res] ++ [
  16, 40338, 897859, 18007, 21023, 1, 1, 1, 98, 0,
  16, 100264, 265838, 13176, 11563, 1, 1, 1, 99, 0,
  16, 102294, 610640, 23645, 18661, 1, 1, 1, 98, 0,
  32, 58057, 598855, 18266, 24814, 1, 0, 1, 98, 0,
]);

cost = array2d(Nodes0, Res, [
  0, 0, 0, 0, 0, 0, 0, 0, 0, 0, % no node
  11, 9, 15, 0, 0, 0, 0, 0, 0, 0,
  14, 7, 19, 0, 0, 0, 0, 0, 0, 0,
  20, 10, 16, 0, 0, 0, 0, 0, 0, 0,
  15, 9, 20, 0, 0, 0, 0, 0, 0, 0,
]);

cons = array2d(Nodes0, Res, [
  0, 0, 0, 0, 0, 0, 0, 0, 0, 0, % no node
  23, 43, 28, 0, 0, 0, 0, 0, 0, 0,
  15, 8, 50, 0, 0, 0, 0, 0, 0, 0,
  50, 10, 8, 0, 0, 0, 0, 0, 0, 0,
  42, 4, 13, 0, 0, 0, 0, 0, 0, 0,
]);

costWeight = 0;
consWeight = 1;

costBudget = 65194;
consBudget = 68932;

depReq = array3d(Comps, Comps, Res, [
  if c1 = frontend0 /\ c2 = backend2 /\ r = N(avail) then
    97
  elseif c1 = frontend1 /\ c2 = backend2 /\ r = N(avail) then
    95
  elseif c1 = frontend0 /\ c2 = backend0 /\ r = N(avail) then
    97
  elseif c1 = frontend0 /\ c2 = backend1 /\ r = N(avail) then
    96
  elseif c1 = frontend1 /\ c2 = backend1 /\ r = N(avail) then
    97
  elseif c1 = frontend1 /\ c2 = backend0 /\ r = N(avail) then
    97
  else
    worstBounds[r]
  endif | c1 in Comps, c2 in Comps, r in Res]);

linkCap = array3d(Nodes0, Nodes0, Res, [
  if ni = 0 \/ nj = 0 then
    bestBounds[r]
  elseif ni = nj /\ r = N(avail) then
    nodeCap[ni,r]
  elseif {ni, nj} = {n1, n4} /\ r = N(avail) then
    98
  elseif {ni, nj} = {n1, n3} /\ r = N(avail) then
    99
  elseif {ni, nj} = {n1, n2} /\ r = N(avail) then
    99
  elseif {ni, nj} = {n3, n4} /\ r = N(avail) then
    98
  elseif {ni, nj} = {n2, n4} /\ r = N(avail) then
    99
  elseif {ni, nj} = {n2, n3} /\ r = N(avail) then
    99
  else
    worstBounds[r]
  endif | ni in Nodes0, nj in Nodes0, r in Res]);

imp = array2d(Comps, Flavs, [
  1, 2, 3,
  2, 3, 9,
  2, 6, 10,
  2, 3, 6,
  5, 9, 10,
  2, 4, 9,
  2, 6, 8,
]);

